
******************************************************************************
This program contains Ipopt, a library for large-scale nonlinear optimization.
 Ipopt is released as open source code under the Eclipse Public License (EPL).
         For more information visit http://projects.coin-or.org/Ipopt
******************************************************************************

This is Ipopt version 3.12.6, running with linear solver ma57.

Number of nonzeros in equality constraint Jacobian...:        8
Number of nonzeros in inequality constraint Jacobian.:        0
Number of nonzeros in Lagrangian Hessian.............:       10

Total number of variables............................:        5
                     variables with only lower bounds:        0
                variables with lower and upper bounds:        0
                     variables with only upper bounds:        0
Total number of equality constraints.................:        3
Total number of inequality constraints...............:        0
        inequality constraints with only lower bounds:        0
   inequality constraints with lower and upper bounds:        0
        inequality constraints with only upper bounds:        0

iter    objective    inf_pr   inf_du lg(mu)  ||d||  lg(rg) alpha_du alpha_pr  ls
   0  1.0000000e+00 7.76e+00 9.91e-01  -1.0 0.00e+00    -  0.00e+00 0.00e+00   0
   1  1.3093956e-01 1.22e+00 2.27e-01  -1.0 7.10e-01    -  1.00e+00 1.00e+00h  1
   2  8.1225318e-02 6.76e-02 1.52e-02  -1.0 1.12e-01    -  1.00e+00 1.00e+00h  1
   3  7.8785630e-02 2.48e-04 7.23e-05  -2.5 6.98e-03    -  1.00e+00 1.00e+00h  1
   4  7.8776821e-02 3.89e-09 3.41e-09  -5.7 9.04e-05    -  1.00e+00 1.00e+00h  1

Number of Iterations....: 4

                                   (scaled)                 (unscaled)
Objective...............:   7.8776821079499126e-02    7.8776821079499126e-02
Dual infeasibility......:   3.4126633324804700e-09    3.4126633324804700e-09
Constraint violation....:   3.8876266650333946e-09    3.8876266650333946e-09
Complementarity.........:   0.0000000000000000e+00    0.0000000000000000e+00
Overall NLP error.......:   3.8876266650333946e-09    3.8876266650333946e-09


Number of objective function evaluations             = 5
Number of objective gradient evaluations             = 5
Number of equality constraint evaluations            = 5
Number of inequality constraint evaluations          = 0
Number of equality constraint Jacobian evaluations   = 5
Number of inequality constraint Jacobian evaluations = 0
Number of Lagrangian Hessian evaluations             = 4
Total CPU secs in IPOPT (w/o function evaluations)   =      0.003
Total CPU secs in NLP function evaluations           =      0.000

EXIT: Optimal Solution Found.

************************ CUTEst statistics ************************


 Package used            :  IPOPT
 Problem                 :  HS79      
 # variables             =               5
 # constraints           =               3
 # objective functions   =        0.1100000E+02
 # objective gradients   =        0.6000000E+01
 # objective Hessians    =        0.5000000E+01
 # Hessian-vector prdct  =        0.0000000E+00
 # constraints functions =        0.1200000E+02
 # constraints gradients =        0.7000000E+01
 # constraints Hessians  =        0.5000000E+01
 Exit code               =               0
 Final f                 =   0.7877682E-01
 Set up time             =            0.00 seconds
 Solve time              =            0.01 seconds


******************************************************************

System Time =       0.0030000000 s.
